5245
500000
333006
333006
332864
332864
332864
332864
332308
332308
332308
332308
332308
332308
332308
332308
332308
332308
332308
332308
332308
332308
332308
332308
332308
332308
332308
331082
331082
331082
331082
331082
331082
331082
331082
331082
331082
331082
331082
331082
330749
330749
330749
330749
330749
330749
330749
330749
330749
330749
330749
330749
330749
330749
330749
330749
330749
330749
330749
330652
330652
330652
330652
330652
330652
330652
330652
330652
330652
330652
330652
330652
330652
330652
329912
329912
329912
329912
329912
329912
329912
329912
329912
329912
329912
329836
329836
329722
329722
329722
329576
329576
329576
329564
329564
329564
329564
329564
329564
329564
329564
329564
329564
329564
329564
329564
328765
328765
328765
328765
328765
328765
328765
328765
328765
328765
328765
328765
328765
328765
328765
328765
328765
328765
328633
328633
328633
328633
328633
328633
328633
326858
326858
326858
326858
326858
326858
326858
326858
326858
326858
326858
326858
325780
325780
325780
325780
325780
325780
325780
325682
325682
325682
325682
325682
325682
325682
325682
325682
325682
325682
325682
325682
325682
325682
325682
325682
325490
325490
324426
324426
324426
324426
324426
324426
324426
324426
324426
324426
324426
324426
324426
324426
324426
324426
324426
324426
323689
323689
323689
323689
323689
323689
323689
323689
323689
323689
323410
323410
323410
323410
323410
323410
322102
322102
322102
322102
322102
322102
322102
322102
322102
322102
322102
322102
322102
321702
321702
321702
320959
320959
320942
320942
320942
320942
320942
320942
320942
320942
320942
320942
320942
320942
320942
320942
320942
320117
320117
320117
320117
320117
320117
320117
320117
320117
320117
320117
320117
319976
319976
319976
319976
319976
319665
319665
319665
319665
319665
319665
319665
319665
319665
319665
319665
319665
319665
319631
319595
319595
319595
319595
319595
319595
319595
319595
319595
319595
319595
319522
319522
319522
319522
319522
319522
319522
319522
319522
319522
319522
319522
319522
319522
319522
319113
319113
319113
319113
319113
319113
319113
318540
318540
318540
318540
318540
318540
318540
318540
318540
318540
318540
318540
318500
318500
318500
318500
318500
318192
318192
318192
318192
318192
318192
318192
318192
318192
318192
318192
318192
318192
318192
318192
318192
318192
317524
317524
317524
317524
317524
317524
317524
317524
317524
317524
316387
316387
316387
316387
316387
316324
316324
316324
316324
316324
316324
316324
316324
316324
316089
316089
316089
316089
316089
315861
314258
314258
314258
314258
314258
314258
314258
314231
314231
314231
314231
314231
314231
314231
314231
314231
314231
314231
314231
314231
314231
314231
314231
314231
314231
314231
313292
313292
313292
313292
313292
313292
313292
313292
313274
313274
313274
313274
313274
313274
313274
313274
312171
312171
312171
312171
312171
312171
312171
312171
312171
312171
312171
312171
312171
312171
312171
312171
312171
311432
311432
311432
311432
311432
311432
311432
311432
311432
311432
311432
311432
311432
311432
311432
311432
311432
310984
310984
310984
310765
310765
310765
310765
310765
310765
309625
309625
309625
309625
309625
309625
309625
309625
309625
309014
309014
309014
309014
308689
308689
308689
308689
308250
308250
308250
308250
308250
308250
308250
308250
308250
308250
308250
308250
308250
308250
308250
308250
308250
308250
308250
308250
307444
307444
307444
307444
307444
307444
307444
307444
307444
307444
307323
307323
307323
307323
307323
307323
307323
307323
307323
307323
307323
306638
306638
306583
306583
306583
306583
306583
306583
306583
306583
306583
306583
306583
306583
306583
306583
306583
306583
306339
306339
306339
306339
306339
306339
306339
305580
305580
305580
305580
305580
305580
304973
304973
304973
304973
304973
304973
304973
304973
304973
304973
304973
304178
304178
304178
304178
304024
304024
304024
304024
304024
304024
304024
304024
304024
304024
304024
304024
304024
304024
304024
304024
304024
303788
303788
303788
303788
303788
303788
303788
303788
303788
303788
303788
302361
302361
302361
302361
302361
302361
302361
302361
302361
302361
302361
302361
302361
302361
302361
302361
302361
302361
302361
301710
301710
301710
301710
301710
301710
301710
301710
301710
301710
301468
301468
301468
301468
301468
301468
301468
301468
301468
301468
301468
301468
301468
301468
301468
301468
301468
301225
301225
301225
301225
301225
301225
300929
300929
300929
300929
298708
298708
298708
298708
298708
298708
298708
298708
298708
298708
298708
298708
298708
298708
298328
298328
298328
298328
298328
298328
298328
298328
298328
298328
298328
298328
298328
298328
298328
298328
298014
298014
298014
298014
298014
298014
298014
297873
297873
297873
297873
297873
297873
297873
297873
297873
297873
297873
297873
297873
297873
297873
297873
297873
297873
297873
297801
297801
297801
297801
297801
297801
297801
297801
297801
297801
297343
296646
296527
296527
296527
296527
296527
296527
296527
296527
296527
296527
296527
296527
296527
296527
296527
296527
296527
296527
296527
296387
296387
296387
296387
296387
296387
296387
296387
296387
296387
296387
296387
296387
296387
296387
295762
295762
295762
295762
295762
295762
295762
295762
295762
295762
295762
295762
295751
295751
295751
295751
294634
294634
294634
294634
294634
294634
294634
294634
294634
294634
294634
294634
294634
294634
294140
294140
294140
294140
294140
294140
294140
294140
294140
294140
294140
294140
293523
293523
293523
293523
293523
293523
293523
293523
293523
293523
293523
293523
293523
293523
293523
293523
293523
293523
292936
292936
292936
292936
292936
292936
292936
292936
292936
292862
292862
292862
292862
292862
292862
292862
292862
292862
292862
292862
292862
292862
292862
292862
292862
292862
292862
292862
291167
288265
288261
288261
288261
288261
288261
288112
288112
288112
288112
288112
288112
288112
288112
288112
288112
288112
288112
288112
288112
288112
288112
287225
287225
287225
287225
287225
287225
287225
287225
287225
287210
287210
287198
287198
287198
287198
287198
287198
286807
286807
286807
286807
286807
286807
286807
286807
286807
286807
286807
286807
286807
286807
286758
286758
286758
286758
286758
286758
285249
285249
284035
284035
284035
284035
284035
284035
284035
284035
284035
284035
284035
284035
284035
284035
284035
284035
284035
283673
283673
283673
283673
283673
283673
283673
283386
283380
283380
283380
283380
283380
283380
283380
283380
283380
283380
283380
283380
283380
283380
283380
283020
283020
283020
283020
283020
283020
283020
283020
283020
283020
283020
283020
282649
282649
282649
282649
282649
282649
282649
282649
282649
282649
282649
282649
282649
282649
282649
282204
282204
282204
282204
282204
282204
282204
282204
282204
282204
282204
282204
282204
282204
282204
282204
282204
282204
282204
281976
281976
281976
281976
281976
281976
281976
281976
281976
281667
281667
281116
281116
281116
280662
280662
280662
280662
280662
280662
280662
280662
280662
280662
280662
280662
280662
280662
279725
279725
279725
279725
279725
279725
279725
279725
279725
279725
279725
279725
279725
279725
279725
279725
279400
279400
279400
279400
279400
279400
279400
279400
279400
279400
279400
279400
279400
279400
279400
279400
279400
279400
279400
279400
278876
278876
278876
278876
278876
278876
278876
278876
278876
278876
278876
278876
278876
278876
278876
278876
278876
278876
278876
278876
277079
277079
277079
277079
277079
277079
277079
277079
276217
276217
276199
276199
276199
276199
276199
276199
276199
276199
276199
276199
276199
276107
276107
276107
276107
276107
276107
276107
276107
276107
276107
276107
275884
275884
275807
275807
275807
275445
275445
275445
275445
275445
275445
275304
275304
274815
274071
274071
274071
274071
274071
274071
274071
274071
274071
274071
274038
274038
274038
274038
274038
274038
274038
274038
274038
274038
274038
274038
272933
272933
272933
272882
272882
272882
272882
272882
272882
272882
272882
272882
272882
272882
272882
272882
272882
272774
272774
272159
272159
272159
272159
272159
272159
272159
272159
272159
272159
272159
272159
271967
271967
271967
271967
271967
271967
271967
271967
271967
271967
271967
271967
271967
271967
270822
270822
270822
270822
270822
270822
270822
270822
270822
270822
270822
270822
270553
270553
270553
270553
270553
270553
270553
270553
270553
270553
270553
270553
270553
270553
270553
270553
270230
270230
270230
270230
270230
269574
269574
269574
269574
269574
269574
269574
269574
269574
269574
269574
269574
268324
268324
268324
268324
268324
267881
267881
267881
267881
267881
267881
267881
267881
267881
267881
267881
267862
267862
267862
267862
267862
267213
267213
267213
267213
267213
267213
267213
267213
267213
267213
267213
267213
266187
265630
265630
265630
265630
265630
265630
265630
265630
265630
265630
265630
265630
265443
265443
265443
265443
265443
265443
265443
265443
265443
265443
265443
265443
265443
265443
265443
265443
265443
265127
264834
264834
264834
264834
264834
263344
263344
263344
263344
263344
263344
263344
263344
263344
263344
263344
263063
263063
263063
263063
263063
263063
263063
263063
263063
263063
263063
263063
263063
263063
263063
262901
262901
259157
259157
259157
259157
259157
259157
259157
259157
259157
259157
259157
259157
259157
259157
259157
259157
259157
259157
258032
258032
258032
258032
258032
258032
258032
258032
258032
258032
258032
258032
258032
258032
258032
258032
257753
257753
257753
257753
257614
257614
257614
257614
256251
256251
256251
256251
256251
256251
256251
256251
256251
256251
256251
256251
256251
256251
256251
256062
256062
255364
255364
255364
255364
254688
254688
254688
254688
254688
254688
254688
254688
254688
254688
254688
254688
254688
254688
254688
254688
254688
254688
254688
254688
254590
254590
254590
254590
254590
254590
254590
254590
254590
254590
254590
254590
254590
254590
254590
254590
254590
254590
254590
253917
253917
253917
253917
253917
253917
253917
253917
253917
253917
253917
253917
253917
253917
253917
253917
253917
253786
253786
253786
253786
252587
252587
252587
252587
252587
252587
252587
252587
252587
252587
252587
252587
252587
252587
252587
252587
252587
252587
252527
252527
252527
252527
252527
252527
252527
252527
252527
252527
252527
252527
252527
252527
252527
252527
252527
251553
251553
251553
251553
251553
251553
251553
251553
251553
251553
251553
251553
251553
251553
251553
251553
251553
251553
251553
251271
251271
251271
251271
251271
251271
251271
251271
251271
251271
251271
251271
251271
251271
250955
250955
250955
250955
250955
250955
250955
250955
250955
250955
250955
250955
250955
250955
250955
250894
250894
250894
250894
250894
250894
250894
250894
250894
250894
250894
250894
250894
249793
249793
249793
249793
249793
249793
249793
249793
249793
249793
249793
249793
249793
249353
249353
249353
249353
249353
249353
249353
249353
249353
249353
249353
249353
249353
248073
248073
248073
248073
248073
248073
248073
248073
248061
248061
248061
248061
248061
248061
248061
248061
248061
248061
248061
248061
248061
248061
248061
247834
247834
247834
247834
247834
247834
247834
247834
247400
247400
247400
247400
247400
247400
246924
246924
246924
246924
246924
246924
246924
246924
246924
245648
245648
245648
245648
245648
245648
245648
245648
245648
245648
245648
245648
245648
245648
245648
245648
245648
245648
245648
245255
245255
245255
245255
245255
245255
245255
245255
245255
245255
245255
245255
244973
244973
244973
244973
244973
244973
244973
244973
244973
244973
244973
244973
244296
244296
244296
244296
244296
244296
244296
244296
244296
244296
244296
244296
244296
243699
243699
243699
243699
243699
243699
243699
243699
243699
243699
243699
243699
243699
243699
243699
243699
243137
243137
243137
243137
243137
242975
242975
242975
242975
242975
242975
242975
242343
242343
242343
242343
242343
242343
242343
242343
242343
242343
242343
242343
242343
242343
242343
242343
242343
242343
239736
239736
239736
239736
239736
239736
239736
239736
238734
238734
238734
238734
238734
238734
238734
238734
238734
238734
238734
238734
238734
238734
238734
238734
238734
238734
238734
238122
238122
238122
238122
237947
237947
237947
237947
237947
237947
237947
237947
237947
237947
237947
237797
237797
237797
237797
237797
237797
237797
237797
237797
237797
237797
237797
237797
237797
237797
237797
237797
237797
237797
237797
237699
237699
237699
237699
237699
237699
237699
237699
237699
237699
237699
237699
237699
237699
237699
237699
237699
237699
237699
237342
237342
237342
237342
237342
237342
237342
237342
237342
236795
236795
236795
236795
236073
236073
236073
236073
236073
236073
236073
236073
236073
236073
236073
236073
236073
236073
236073
236073
236073
236073
236073
235994
235994
235994
235994
235994
235994
235994
235994
235994
235994
235994
235994
235994
235994
235994
235994
235994
235722
235722
235722
235722
235722
235722
235722
235722
235722
235722
235722
235722
235701
235701
235701
235701
235701
235701
235701
235701
235701
235701
235701
235701
235701
235643
235643
235643
235401
235401
235401
235401
235401
235401
235401
235401
235401
235401
235401
235401
235401
235401
235401
235401
235401
235401
235401
235401
235294
235294
235294
235294
235294
234966
234966
234966
234966
234966
234966
234966
234966
234966
234966
234966
234966
234954
234954
234954
234954
234954
234954
234954
234954
234954
234954
234954
234954
234954
234954
234954
234954
234954
234954
234954
234954
233003
233003
233003
233003
233003
232369
232369
232369
232369
232369
232369
232369
232369
232369
232369
232369
232369
232369
232369
232369
232369
232285
232285
232285
232285
232285
232285
232285
232285
232285
232285
232285
232285
232285
232285
232219
232219
232219
232219
232219
232219
232219
232219
232219
232219
232219
232219
232219
232219
232219
232219
232219
232219
232219
232115
232115
232115
232115
232115
232115
232115
232115
232115
232115
232115
232115
232115
232115
232115
232115
232115
231929
231929
231929
231929
231929
231929
231929
231929
231585
231585
231585
231585
230187
230187
230187
230187
229714
229714
229714
229714
229714
229714
229714
229714
229714
229714
229714
229714
228820
228820
228820
228820
228820
228769
228769
228769
228769
228769
228769
228769
228769
228769
228769
228769
228769
228769
228769
228769
228769
228769
228769
228769
228769
228755
228755
228755
228755
228755
228755
228755
228755
228755
228755
228755
228755
228690
228690
228690
228690
228690
228690
228690
228690
228690
228690
228690
228393
228393
228393
228393
228393
228393
228393
228393
228106
228106
228106
228106
228106
228106
228106
226752
226752
226752
226752
226752
226752
226752
226752
226752
226752
226752
226752
226752
226752
226752
226752
226752
226752
226517
226471
226471
226471
226471
226471
226471
226471
226002
226002
226002
226002
226002
226002
226002
226002
226002
226002
226002
226002
226002
226002
226002
225593
225593
225593
225593
225593
225593
225593
225593
225593
225593
225003
223193
223193
223193
223193
223193
223193
223193
223193
222970
222970
222970
222954
222954
222954
222954
222954
222954
222954
222954
222954
222668
222668
222668
222668
222668
222668
222668
220880
220880
220880
220880
220880
220880
220880
220880
220880
220168
220168
220168
220168
220168
220168
220168
220168
220168
220168
220168
220168
220168
220168
220168
220168
220168
220168
220168
219809
219809
219659
219659
219659
219659
219659
219659
219659
219659
219659
219659
219659
219659
219659
219659
219659
219659
219659
219659
219659
219659
219187
219187
219187
219187
219150
219150
219150
219150
219150
219150
219150
219150
219150
218435
218435
218435
218435
218435
218435
218435
218435
218435
218435
218435
218392
218392
218392
218392
218392
218392
218392
218392
218392
218392
218392
218392
218392
218392
218392
218392
218392
218392
218392
217649
217649
217649
217649
217649
217649
217649
216098
216098
216098
216098
216098
216098
216098
216098
216098
216098
216098
216098
216098
216098
216098
216098
216098
216098
216098
215983
215983
215983
215983
215983
215983
215983
215983
215983
215589
215589
215589
215589
215589
215589
215589
215589
215589
215589
215589
215589
215589
214693
214693
214693
214693
214693
214693
214693
214693
214693
214693
214693
214693
214693
214693
214693
214693
214491
214491
214491
214491
214491
214491
214491
214491
214491
214491
214491
214491
214491
214491
214491
214491
214491
214491
214379
214379
214379
214379
214379
214379
214379
214379
214379
214153
214153
214153
214153
214153
214153
214153
214153
214153
214153
214153
214153
214153
214153
214153
214153
213929
213929
213929
213929
213929
213929
213929
213929
213929
213929
213929
213929
213929
213929
213716
213716
213716
213340
213340
213340
213340
213340
213340
213340
213340
213340
212840
212840
212840
212840
212840
212840
212840
212026
212026
212026
212026
212026
212026
212026
212026
212026
212026
211921
211921
211921
211921
211921
211921
211921
211921
211921
211921
211864
211864
211864
211864
211864
211864
211864
211864
211864
211864
211864
211864
211864
211864
211864
211864
211864
211286
211286
211286
211286
211286
211286
211286
211286
211286
211286
211286
211286
211286
211286
211286
211286
211286
211286
211063
211063
211063
211063
211063
211063
211063
211063
211063
211063
211063
211063
211063
211063
211063
209497
209497
209497
209497
209497
209497
209497
209497
209497
209497
209497
209497
209497
209497
209497
208394
208394
208394
208394
208394
208394
208394
208394
208394
208394
208394
208394
208394
207733
207733
207733
207733
207733
207733
207733
207733
207733
207733
207733
207733
207733
207733
207733
207733
207733
207733
207733
206992
206992
206992
206992
206992
206992
206992
206992
206992
206992
206992
206992
206992
206992
206992
206992
206407
206407
206407
206407
206407
206407
206407
206407
206407
206407
206335
206335
206335
206335
206335
206335
206335
206335
206335
206335
206335
206335
205733
205733
205733
205733
205733
205706
205706
205706
205706
205706
205706
205706
205706
205706
205706
205706
205365
205365
205365
205365
205365
205365
205365
205365
205365
205365
205365
205365
205365
205365
205365
205365
205365
205365
205365
204174
204174
204174
204174
204174
204174
204174
203966
203966
203966
203966
203966
203966
203966
203183
203183
203183
203183
203183
203183
203183
203183
203183
203183
203183
203183
203183
203183
203183
203183
201826
201826
201826
201826
201826
201826
201826
201826
201826
201826
201826
201826
201826
201826
201826
201826
201826
201826
201826
198645
198645
198645
198449
198449
198449
198449
198449
198449
198449
198449
198449
198449
198449
198449
198449
198449
198280
197281
197281
197281
197281
197281
197281
197281
197281
197281
197281
197281
197281
196854
196854
196854
196854
196854
196854
196854
196854
196854
196854
196854
196854
196854
196854
196854
196854
196854
196736
196736
196736
196736
196736
196736
196736
196736
196736
196736
196736
196736
196736
196736
196736
196736
196736
196736
196736
196736
196566
196566
196566
196566
196566
196566
196566
196566
196566
196566
196566
196566
196566
196566
196566
196566
196256
196256
196256
196256
195861
195861
195861
195861
195861
195861
195861
195861
195861
195861
195861
195861
195861
195861
195861
195861
195861
195184
195184
195184
195184
195052
195052
195052
195052
195052
195052
195052
195052
195052
195052
195052
195052
195052
195052
195052
195052
195052
194691
194691
194691
194691
194691
194691
194691
194691
194691
194691
194691
194691
194691
194691
194691
194691
194691
194272
194272
194272
194272
194272
194272
194272
194272
194272
194272
194272
194272
194272
194272
193065
193065
193065
193065
193065
193065
193065
193065
193065
193065
193065
192991
192991
192991
192991
191740
191740
191740
191740
191740
191740
191740
191740
191740
191740
191740
191740
191563
191563
191563
191563
191563
191563
191563
191563
191563
191563
191563
191563
191563
191563
191563
191563
191563
191563
191563
191563
190785
190785
190545
190545
190545
190545
190545
190545
190545
190545
190545
190545
190545
190545
190545
190545
190545
190545
190545
190545
190545
190270
190270
190270
190270
190270
190270
190270
190270
190270
189494
189494
189494
189494
189494
189494
189494
189494
189494
189494
189494
189494
189494
189494
189494
189494
189494
189494
189494
189494
189243
189243
189243
189243
189243
189243
189243
189243
189243
189243
189243
189243
188706
188706
188706
188706
188706
188706
188706
188706
188706
188706
188706
188706
188706
188706
188706
188706
188390
188390
188390
188390
188390
188390
188390
188390
188390
188390
188390
188390
188390
188390
188390
188390
188390
188390
188390
187520
187520
187520
187520
187520
187520
187520
187520
187520
187520
187520
187520
187520
187520
187248
187248
187248
187248
187248
187248
187248
187248
187248
187248
187248
187248
187248
187248
187248
187248
187248
187248
187248
184499
184499
184499
184499
183012
183012
183012
183012
183012
183012
183012
183012
183012
183012
182084
182084
182084
182084
182084
182084
182084
182084
182084
182084
182084
182084
182084
182084
182084
182084
182084
182084
181403
181403
181403
181403
181403
181403
181403
181403
181403
181403
181403
181403
181403
181403
181148
181148
181148
181148
180694
180694
180694
180694
180694
180694
180183
180183
180183
180183
180183
180183
180183
180183
180183
180183
180154
180154
180154
180154
180154
180154
180154
180154
180154
180154
180154
180154
180154
179955
179955
179955
179955
179955
179955
179955
179955
179955
179955
179955
179955
179955
179955
179663
179663
179663
179663
179663
179663
179663
179663
179663
179663
179420
179420
179420
179420
179420
179420
179420
179420
179420
179420
179420
179420
179420
179420
177907
177907
177455
177455
177455
177455
177455
177455
177455
177455
177455
177455
177455
177455
177391
177391
177391
177391
177391
177391
177391
177391
177391
177391
176704
176704
176704
176704
176704
176704
176704
176704
175679
175679
175679
175679
175679
175679
175679
175679
175679
175679
175679
175679
175679
175679
174657
174657
174657
174657
174657
174657
174657
174657
174657
174657
174657
174657
174657
174657
174381
174381
174381
174381
174381
174381
174381
174381
174381
174381
173775
173775
173775
173775
173775
173775
173775
173415
173415
173136
173136
173136
173136
173136
173136
173136
173136
173128
173128
173128
173128
173128
173128
173128
173128
173128
173128
173128
173128
173121
173121
173121
173121
173121
172784
172784
172784
172784
172784
172784
172784
172784
172784
172784
172784
172784
172784
172051
172051
172051
172051
172051
172051
172051
172051
172051
172051
172051
172051
172051
172051
172051
172051
172051
172051
172051
172051
170469
170469
170469
170469
170469
170469
170469
170469
170469
170469
170469
170469
170160
170160
170160
170160
170160
170160
170160
170160
170160
170160
170160
170160
170160
170160
170160
170160
170160
170160
169734
169734
169569
169569
169569
169569
169569
169569
169569
169569
169569
169569
169569
169569
169569
169569
167692
167692
167692
167692
167692
167692
167692
167692
167692
167692
167692
167692
167692
167692
167692
167692
167692
167692
167692
167692
167177
167177
167177
167177
167177
167177
167177
167177
167177
167177
167177
167101
167101
167101
167101
167101
167101
167101
167101
167101
167101
167101
167101
167101
167101
167101
166664
166664
166664
166664
165958
165958
165958
165958
165958
165958
165958
165958
165958
164757
164757
164757
164757
164757
164757
164757
164757
164757
164757
164757
164757
164757
164757
164757
164757
164757
164757
164757
164757
163718
163718
163718
163718
163718
163718
163601
163601
162747
162747
162747
162747
162747
162747
162747
162726
162726
162632
162422
162422
162422
162422
162422
162422
162422
162298
162298
162298
161969
161969
161969
161969
161969
161969
161969
161969
161969
161969
161969
160982
160982
160982
160982
160982
160982
160982
160982
160982
160982
160982
160982
160982
160982
160982
160982
160982
160982
160847
160847
160847
160847
160847
160847
160847
160847
160847
160847
160847
160847
160847
160847
160847
160847
160847
160847
160847
160727
160727
160727
160727
160727
160727
160727
160727
160727
160727
160727
160727
160727
160727
160119
160119
160119
160119
160119
160119
160119
160119
160119
160119
160119
160119
160119
160119
160119
160119
160119
158870
158870
158870
158870
158870
158870
158870
158870
158870
158870
158870
158481
157980
157980
157980
157980
157980
157980
157980
157980
157980
157980
157980
157980
157831
157831
157831
157831
157831
157831
157831
157831
157831
157831
157831
157831
157831
157831
157831
157831
157481
157481
157481
157481
157481
157481
157481
156845
156845
156845
156845
156845
156845
156845
156845
156613
156613
156473
156473
156473
156473
156473
156473
156473
156473
156473
156473
156473
156459
156459
156459
156459
156459
156459
156459
156459
153826
153826
153826
153826
153826
153826
153826
153826
153826
153826
153826
152931
152931
152931
152931
152931
152923
152923
152923
152923
152923
152923
152923
152923
152923
152923
152923
152923
152923
152923
152923
152923
152923
152610
152610
152610
152610
152610
152610
152610
152610
152610
152582
152582
152582
152582
152582
152582
152582
152582
152582
152330
152330
152330
152330
152330
152330
152330
152330
152330
152330
152330
152330
152330
152330
152330
152330
152330
152330
152330
152330
151842
151842
151842
151842
151113
151113
151113
151113
151113
151113
151113
151113
151113
151113
151113
151113
151113
151113
151113
151113
151113
151113
151113
149771
149771
149771
149771
149771
149771
149353
149353
149353
149353
149353
149353
149353
149353
149353
149353
149090
149090
149090
149090
149090
149003
149003
149003
149003
149003
149003
149003
149003
149003
148867
148867
148867
148867
148867
148867
148867
148867
148867
148867
148867
148867
148867
148867
148867
148867
148867
148867
148867
148862
148862
148862
148862
148862
148862
148862
148862
148862
148862
148646
148646
148646
148646
148646
147723
147723
147723
147723
147723
147723
146833
146833
146833
146833
146833
146833
146833
146833
146833
146833
146833
146833
146833
146833
146833
146833
146833
146833
146585
146585
146585
146585
146585
146585
146585
146585
146585
146585
146585
146585
146585
146585
146585
146585
146585
146585
145957
145957
145957
145957
145957
145957
145957
145957
145957
145957
145957
145957
145957
145798
145798
145798
145798
145798
145798
145798
145798
145798
145798
145678
145138
145138
145138
145138
145138
145138
145138
145138
145138
145138
145138
145138
145138
145138
145138
145138
145138
145138
144792
144792
144792
144792
144792
144792
144792
144792
144792
144792
144792
144792
144792
144792
144792
144792
144792
144792
144792
144048
144048
144048
144048
144048
144048
143692
143022
143022
143022
143022
143022
143022
143022
143022
143022
143022
142304
142304
142304
142304
142304
142304
142304
142304
141752
141752
141752
141752
141752
141752
141752
141752
141752
141752
141752
141752
141752
141752
141752
141752
141169
141169
141169
141169
141169
141019
141019
140466
140466
140466
140466
140466
140466
140466
140466
140466
140466
140466
137819
137819
137819
137819
137819
137819
137819
137819
137262
137262
137262
137262
137262
137262
137262
137262
137262
137262
137262
137262
137262
137262
137262
137262
137123
137123
137123
137123
137123
136705
136705
136705
136705
136705
136705
136705
136705
136705
136705
136705
136705
136705
136705
136006
136006
136006
136006
136006
136006
136006
136006
135919
135919
135919
135919
135919
135919
135919
135919
135919
135919
135919
135919
135831
135813
135813
135813
135813
135813
135813
135813
135813
135813
135813
135813
135813
135813
135813
135813
135813
135813
135813
135813
135479
135479
135479
135479
134477
134477
134477
134477
134477
134477
134477
134477
134477
134477
134477
134477
134113
134113
134113
134113
134113
134113
134113
134113
134113
134113
134113
134113
134113
134113
133754
133754
133754
133754
133754
133754
133754
133754
133754
133754
133754
133754
133754
133754
133754
133726
133726
133726
133726
133726
133726
133726
133726
133726
133726
133226
133226
133226
133226
133226
133226
133226
133226
133226
133226
133107
133107
133107
133107
132784
132784
132784
132163
132163
132163
132163
132163
132163
132163
131784
131784
131784
131784
131784
131784
131784
131784
131784
131784
131784
131784
131784
131784
131784
131784
131784
131695
131695
131695
131695
131695
131695
131695
131695
131695
131695
130894
130894
130894
130894
130894
130894
130894
130894
130894
130894
130894
130894
129795
129795
128543
128543
128543
128543
128543
128543
128543
128543
128543
128543
128543
128406
128406
128406
128406
128406
128406
128406
128406
128406
128406
128406
128406
128406
128406
128406
128406
127954
127954
127954
127954
127954
127954
127954
127348
127348
127348
127348
127348
127348
126999
126999
126999
126617
126617
126617
126617
126617
126617
126617
126617
126611
126611
126611
126611
126611
126611
126611
126611
126611
126611
126611
126611
126189
126189
126189
126189
126189
126189
126189
125228
125228
125228
125228
125228
125228
124982
124982
124982
124982
124982
124128
124128
124128
124128
123528
123528
123528
123528
123528
123528
123528
123528
123528
123528
123528
123528
123528
123048
123048
123048
123048
123048
123048
122560
122035
122035
122035
121303
121303
121303
121303
121303
121303
120050
120050
120050
120050
120050
120050
120050
120050
120050
120050
120050
119836
119836
119836
119836
119836
119836
119836
119836
119836
119836
119836
119836
119836
119836
119836
119836
119836
118150
118150
118150
118150
118150
118081
118081
118081
118081
117900
117900
117900
117900
117900
117900
117900
117900
117900
117900
117900
117752
117752
116733
116733
115921
115921
115921
115921
115921
115921
115921
115921
115921
115921
115921
115921
115921
115921
115921
115921
115921
115921
115874
115874
115874
115874
115874
115874
115874
115874
115874
115874
115140
115140
115140
115140
115140
115140
115140
115140
115140
115140
115140
115140
115140
115140
115140
115140
115140
115074
115074
115074
115074
115074
115074
115074
115074
115074
115074
115074
114994
114994
114994
114994
114378
114378
113910
113910
113910
113910
113910
113910
113910
113910
113603
113603
113603
113117
113117
113117
113117
113117
113117
113117
113034
113034
113034
113034
113034
113034
113034
113034
113034
113034
113034
113034
113034
112945
112945
112945
112945
112945
112945
112945
112945
112945
112945
112945
112945
112945
112945
112945
112945
111847
111847
111201
111201
111201
111201
111201
111201
111201
110163
110163
110163
110163
110163
110163
110163
110163
110163
110163
110163
110163
108898
108898
108898
108898
108898
108748
108748
108748
108748
108748
108748
108748
108748
108748
108748
108748
108748
108748
108748
108748
107836
107836
107836
107836
107836
107836
107197
107197
107197
107197
107197
107197
107197
107197
107197
107197
107197
106982
106982
106982
106982
106982
106982
106982
106982
106982
106302
106302
106302
106302
106302
106302
106302
106302
106302
106302
106302
106302
106302
106302
105542
105542
105542
105542
105542
105542
105542
105542
105542
105542
105542
105542
104992
104992
104992
104992
104992
104992
104937
104937
104937
104937
104937
104937
104937
104937
104937
104937
104937
104910
104910
104910
104910
104910
104910
104910
104910
104910
104910
104768
104768
104768
104768
104703
104703
104703
104703
104703
104703
104703
104703
104703
104703
104703
104703
104703
104703
104703
104703
104703
104703
104703
104698
104698
104698
104698
104698
104698
104698
104698
104698
104698
104698
104698
104698
104698
104698
104698
104698
104076
104076
104076
104076
104076
104076
104076
104076
104076
104076
104076
104076
104076
104076
104025
104025
104025
104025
104025
104025
104025
104025
104025
104025
103979
103979
103979
103979
103979
103979
103979
103979
103979
103979
103979
103979
103979
103979
103979
103979
103979
103979
103979
103979
103954
103954
103954
103954
103954
103954
103954
103954
103954
103954
103954
103954
103954
103954
103954
103954
103954
102995
102995
102995
102995
102549
102549
102549
102549
102549
102549
102549
102549
102549
102549
102418
102418
102418
102418
102418
102349
102349
102349
102349
102349
102349
102349
102349
102349
102349
101581
101581
101581
101581
101581
101581
101581
101581
101581
101581
101581
101581
101581
101581
101581
101368
101368
101368
101368
101368
101368
101368
101368
101368
101368
101368
101368
101368
101368
101368
101068
101068
101068
101068
101068
101068
101068
100746
100746
100746
100746
100746
100746
100746
100746
100746
100746
100746
100746
99778
99778
99778
99778
99778
99778
99778
99778
99778
99778
99778
99778
99778
99778
99778
99654
99654
99654
99654
99654
99654
99654
99654
99654
99654
99654
99654
99654
98745
98745
98745
98745
98745
98745
98745
98745
98745
98393
98393
98393
98393
98393
98393
98393
98393
98393
98393
98393
98393
98393
98393
98191
98191
98191
98191
98191
98191
98191
97771
97771
97771
97771
97771
97771
97771
97717
97717
97717
97717
97717
97717
97717
97717
97717
97717
97717
97717
97717
97536
97536
97536
97536
97536
97217
97217
97217
97217
97217
97217
97217
97217
97217
96279
96279
96279
96279
96279
96279
96279
96279
96279
96279
96279
96279
96279
96279
96279
96279
96279
96279
96279
95888
95888
95888
95888
95888
95888
95888
95888
95888
95888
95888
95888
95223
95223
95223
95223
95223
95223
95223
94927
94927
94927
94927
94927
94927
94927
94927
94927
94927
94927
94538
94538
94538
94538
94538
94538
94538
94538
94538
94538
94538
94468
94468
94468
94468
94468
94468
94468
94468
94468
94468
94468
92297
92297
92297
92297
92297
92297
92297
92297
92297
92297
92297
92297
92297
92297
92297
92218
92218
92218
92218
92218
92218
92218
92218
92218
92218
92218
92218
92218
92218
92218
92218
92218
92218
92218
92218
92048
92048
92048
92048
92048
92048
92048
92048
92048
92048
92048
92048
92048
92048
92048
92048
92048
92048
92048
92048
92000
92000
92000
92000
92000
92000
91937
91937
91937
91937
91937
91937
91937
91937
91937
91937
91826
91826
91826
91826
91826
91826
91826
91826
91826
91826
91826
91826
91826
91826
91826
91546
91546
91546
91546
91546
91546
91546
91546
91546
91546
91546
91546
91546
91546
91546
91546
91546
91546
91546
91546
90029
90029
90029
90029
90029
90029
90029
90029
90029
90029
90029
90029
90029
90029
90029
90029
90029
90029
88162
88162
88162
87287
87287
87287
87287
87287
87287
87287
87287
87287
87287
87287
87287
87287
87287
87287
87287
87287
87287
86772
86772
86772
86772
86772
86772
86772
86772
86772
86772
86772
86772
86772
86772
86772
86772
86772
86772
86772
86411
86411
86411
86411
86411
86411
86411
86411
86411
86411
86411
86411
86411
86171
86171
86171
86171
86171
86171
86171
86171
86171
86171
86171
86171
86171
86171
86171
86171
86171
86171
86171
85492
85492
85492
85492
85492
85492
85492
85492
85492
85492
85492
85492
84423
84423
84423
84423
84423
83448
83448
83448
83448
83448
83448
83448
83448
83448
83448
82887
82887
82887
82887
82887
82887
82887
82887
82887
82887
82887
82887
82887
82887
82887
82887
80691
80691
80691
80691
80691
80691
80691
80691
80691
80691
80691
80691
80691
80691
80691
80691
80691
80691
80691
80275
80275
79747
79747
79747
79747
79747
79747
79747
79747
79747
79747
79747
79747
79747
79747
79712
79712
79712
79703
79703
79703
79703
79703
79703
79703
79703
79703
79703
79426
79426
79426
79426
79426
77809
77809
77809
77809
77809
77809
77809
77809
77809
77809
77809
77638
77638
77638
77638
77638
77638
76114
76057
76057
76057
76057
76057
76057
76057
76057
76057
76057
76057
76057
74249
74249
74249
74249
74249
74249
74249
74249
74249
74249
74249
74249
74249
74249
74249
74249
74249
74249
74249
73760
73760
73760
73760
73760
73760
73760
73760
73760
73760
73760
73760
73760
73760
73760
73760
73760
73760
73640
73640
73640
73640
73640
73640
73640
73640
73640
73640
73506
73506
73506
73506
73506
73506
73506
73506
73506
73506
73506
73245
73245
73245
73245
73245
73245
73245
73245
73245
73160
73160
73160
73160
73160
73160
73160
73160
73160
73160
73160
73160
73160
73160
73160
73160
73007
73007
73007
73007
73007
73007
73007
73007
73007
73007
72016
72016
72016
72016
72016
72016
72016
72016
72016
72016
72016
72016
71704
71704
71704
71704
71704
71704
71704
71704
71704
71704
71704
71704
70348
70348
70348
70348
70348
70348
70348
70348
70348
70348
70348
70348
70008
70008
69774
69774
69774
69774
